row=7;
column=7;
Board=[|6,0,0,0,4,0,0|3,7,2,0,0,0,5|4,0,0,5,7,6,0|0,0,0,0,0,0,0|0,0,0,7,1,0,0|0,0,0,0,5,3,0|1,4,5,0,0,7,0|];
OE=[|0,0,1,1,0,1,1|1,1,0,0,0,1,1|0,1,1,1,1,0,0|0,1,0,1,1,0,1|1,0,1,1,1,0,0|1,1,0,0,1,1,0|1,0,1,0,0,1,1|];
